c CNF file corresponding to a (partial) station packing problem.
p cnf 4086 229
1 2 3 4 5 6 7 8 9 10 11 12 13 14 0
-1 -2 0
-1 -3 0
-1 -4 0
-1 -5 0
-1 -6 0
-1 -7 0
-1 -8 0
-1 -9 0
-1 -10 0
-1 -11 0
-1 -12 0
-1 -13 0
-1 -14 0
-2 -3 0
-2 -4 0
-2 -5 0
-2 -6 0
-2 -7 0
-2 -8 0
-2 -9 0
-2 -10 0
-2 -11 0
-2 -12 0
-2 -13 0
-2 -14 0
-3 -4 0
-3 -5 0
-3 -6 0
-3 -7 0
-3 -8 0
-3 -9 0
-3 -10 0
-3 -11 0
-3 -12 0
-3 -13 0
-3 -14 0
-4 -5 0
-4 -6 0
-4 -7 0
-4 -8 0
-4 -9 0
-4 -10 0
-4 -11 0
-4 -12 0
-4 -13 0
-4 -14 0
-5 -6 0
-5 -7 0
-5 -8 0
-5 -9 0
-5 -10 0
-5 -11 0
-5 -12 0
-5 -13 0
-5 -14 0
-6 -7 0
-6 -8 0
-6 -9 0
-6 -10 0
-6 -11 0
-6 -12 0
-6 -13 0
-6 -14 0
-7 -8 0
-7 -9 0
-7 -10 0
-7 -11 0
-7 -12 0
-7 -13 0
-7 -14 0
-8 -9 0
-8 -10 0
-8 -11 0
-8 -12 0
-8 -13 0
-8 -14 0
-9 -10 0
-9 -11 0
-9 -12 0
-9 -13 0
-9 -14 0
-10 -11 0
-10 -12 0
-10 -13 0
-10 -14 0
-11 -12 0
-11 -13 0
-11 -14 0
-12 -13 0
-12 -14 0
-13 -14 0
4070 4071 4072 4073 4074 4075 4076 4077 4078 4079 4080 4081 4082 4083 4084 4085 4086 0
-4070 -4071 0
-4070 -4072 0
-4070 -4073 0
-4070 -4074 0
-4070 -4075 0
-4070 -4076 0
-4070 -4077 0
-4070 -4078 0
-4070 -4079 0
-4070 -4080 0
-4070 -4081 0
-4070 -4082 0
-4070 -4083 0
-4070 -4084 0
-4070 -4085 0
-4070 -4086 0
-4071 -4072 0
-4071 -4073 0
-4071 -4074 0
-4071 -4075 0
-4071 -4076 0
-4071 -4077 0
-4071 -4078 0
-4071 -4079 0
-4071 -4080 0
-4071 -4081 0
-4071 -4082 0
-4071 -4083 0
-4071 -4084 0
-4071 -4085 0
-4071 -4086 0
-4072 -4073 0
-4072 -4074 0
-4072 -4075 0
-4072 -4076 0
-4072 -4077 0
-4072 -4078 0
-4072 -4079 0
-4072 -4080 0
-4072 -4081 0
-4072 -4082 0
-4072 -4083 0
-4072 -4084 0
-4072 -4085 0
-4072 -4086 0
-4073 -4074 0
-4073 -4075 0
-4073 -4076 0
-4073 -4077 0
-4073 -4078 0
-4073 -4079 0
-4073 -4080 0
-4073 -4081 0
-4073 -4082 0
-4073 -4083 0
-4073 -4084 0
-4073 -4085 0
-4073 -4086 0
-4074 -4075 0
-4074 -4076 0
-4074 -4077 0
-4074 -4078 0
-4074 -4079 0
-4074 -4080 0
-4074 -4081 0
-4074 -4082 0
-4074 -4083 0
-4074 -4084 0
-4074 -4085 0
-4074 -4086 0
-4075 -4076 0
-4075 -4077 0
-4075 -4078 0
-4075 -4079 0
-4075 -4080 0
-4075 -4081 0
-4075 -4082 0
-4075 -4083 0
-4075 -4084 0
-4075 -4085 0
-4075 -4086 0
-4076 -4077 0
-4076 -4078 0
-4076 -4079 0
-4076 -4080 0
-4076 -4081 0
-4076 -4082 0
-4076 -4083 0
-4076 -4084 0
-4076 -4085 0
-4076 -4086 0
-4077 -4078 0
-4077 -4079 0
-4077 -4080 0
-4077 -4081 0
-4077 -4082 0
-4077 -4083 0
-4077 -4084 0
-4077 -4085 0
-4077 -4086 0
-4078 -4079 0
-4078 -4080 0
-4078 -4081 0
-4078 -4082 0
-4078 -4083 0
-4078 -4084 0
-4078 -4085 0
-4078 -4086 0
-4079 -4080 0
-4079 -4081 0
-4079 -4082 0
-4079 -4083 0
-4079 -4084 0
-4079 -4085 0
-4079 -4086 0
-4080 -4081 0
-4080 -4082 0
-4080 -4083 0
-4080 -4084 0
-4080 -4085 0
-4080 -4086 0
-4081 -4082 0
-4081 -4083 0
-4081 -4084 0
-4081 -4085 0
-4081 -4086 0
-4082 -4083 0
-4082 -4084 0
-4082 -4085 0
-4082 -4086 0
-4083 -4084 0
-4083 -4085 0
-4083 -4086 0
-4084 -4085 0
-4084 -4086 0
-4085 -4086 0
